* ; EXPECT: sat
* ; COMMAND-LINE: 
* ; COMMAND-LINE: --solve-bv-as-int=sum
* (set-logic QF_BV)
* (declare-const v (_ BitVec 3))
* (assert (not (bvumulo v v)))
* (check-sat)
* sat
* #variable= 41 #constraint= 60
-1 x25 -1 x27 +1 x11 >= -1;
+1 x26 +1 x26 -2 x14 >= 0;
+1 x27 +1 x28 -2 x20 >= 0;
+1 x25 +1 x26 -2 x10 >= 0;
-1 x28 -1 x25 +1 x21 >= -1;
-1 x25 -1 x26 +1 x10 >= -1;
+1 x9 +2 x10 +4 x11 +8 x12 +2 x13 +4 x14 +8 x15 +16 x16 +4 x17 +8 x18 +16 x19 +32 x20 +8 x21 +16 x22 +32 x23 +64 x24 -1 x5 -2 x6 -4 x7 -8 x8 -16 x33 -32 x34 -64 x35 -128 x36 = 0;
-1 x28 -1 x26 +1 x22 >= -1;
+1 x8 -1 x4 = 0;
+1 x26 +1 x25 -2 x13 >= 0;
-1 x40 +1 x3 >= 0;
-1 x26 -1 x25 +1 x13 >= -1;
-1 x25 -1 x28 +1 x12 >= -1;
-1 x4 +1 x3 >= 0;
+1 x25 +1 x28 -2 x12 >= 0;
+1 x1 >= 1;
+1 x32 = 0;
-1 x27 -1 x28 +1 x20 >= -1;
+1 x25 +1 x27 -2 x11 >= 0;
+1 x28 +1 x28 -2 x24 >= 0;
+1 x32 -1 x28 = 0;
+1 x31 -1 x27 = 0;
+1 x38 -1 x37 >= 0;
-1 x28 -1 x28 +1 x24 >= -1;
+1 x31 -1 x38 = 0;
-1 x25 -1 x25 +1 x9 >= -1;
-1 x28 -1 x27 +1 x23 >= -1;
+1 x28 +1 x26 -2 x22 >= 0;
+1 x4 +1 x37 +1 x40 -1 x3 >= 0;
+1 x39 -1 x37 >= 0;
-1 x38 -1 x41 +1 x40 >= -1;
+1 x41 -1 x40 >= 0;
-1 x38 +1 x41 >= 0;
+1 x38 -1 x40 >= 0;
-1 x2 -1 x3 -1 x1 >= -2;
-1 x26 -1 x27 +1 x15 >= -1;
-1 x2 +1 x3 +1 x1 >= 0;
+1 x26 +1 x28 -2 x16 >= 0;
+1 x27 +1 x25 -2 x17 >= 0;
-1 x37 +1 x3 >= 0;
+1 x2 = 1;
-1 x27 -1 x26 +1 x18 >= -1;
-1 x38 -1 x39 +1 x37 >= -1;
+1 x28 +1 x27 -2 x23 >= 0;
+1 x25 +1 x25 -2 x9 >= 0;
-1 x26 -1 x26 +1 x14 >= -1;
+1 x2 +1 x3 -1 x1 >= 0;
+1 x30 -1 x26 = 0;
+1 x2 -1 x3 +1 x1 >= 0;
+1 x27 +1 x26 -2 x18 >= 0;
-1 x27 -1 x25 +1 x17 >= -1;
+1 x26 +1 x27 -2 x15 >= 0;
+1 x30 -1 x39 = 0;
-1 x26 -1 x28 +1 x16 >= -1;
-1 x39 +1 x41 >= 0;
+1 x27 +1 x27 -2 x19 >= 0;
+1 x29 -1 x25 = 0;
-1 x27 -1 x27 +1 x19 >= -1;
+1 x38 +1 x39 -1 x41 >= 0;
+1 x28 +1 x25 -2 x21 >= 0;
